25 50
1 2 2
1 6 3
2 3 5
2 7 3
3 4 2
3 8 2
4 5 4
4 9 4
5 10 3
6 7 3
6 11 1
7 8 3
7 12 1
8 9 3
8 13 3
9 10 5
9 14 2
10 15 3
11 12 5
11 16 4
12 13 2
12 17 2
13 14 4
13 18 2
14 15 4
14 19 5
15 20 1
16 17 3
16 21 4
17 18 5
17 22 5
18 19 1
18 23 3
19 20 2
19 24 1
20 25 3
21 22 2
22 23 3
23 24 4
24 25 5
1 21 3
2 22 3
3 23 4
4 24 3
5 25 4
1 5 3
6 10 5
11 15 2
16 20 4
21 25 5
